100
128
46
63
8
7
59
36
60
25
29
45
50
13
22
27
10
32
35
16
63
10
22
8
8
31
34
51
22
59
36
10
53
8
44
16
33
18
62
31
48
1
14
15
40
11
14
48
37
34
16
25
34
59
21
12
23
62
15
12
60
32
16
45
35
29
15
54
48
2
18
61
13
14
26
46
23
18
18
47
25
41
17
7
19
38
45
5
57
25
55
35
60
50
18
44
29
27
17
58
56
63